n = 90;
capacity = 100;
size = [80, 80, 78, 78, 77, 77, 77, 77, 76, 76, 75, 73, 73, 72, 72, 71, 71, 70, 70, 69, 69, 68, 67, 67, 67, 65, 65, 65, 65, 63, 62, 61, 59, 58, 58, 58, 58, 58, 57, 57, 57, 57, 56, 56, 55, 54, 54, 52, 51, 51, 50, 48, 48, 48, 47, 47, 47, 46, 45, 45, 44, 44, 43, 40, 38, 37, 36, 36, 35, 35, 34, 33, 33, 32, 31, 31, 29, 29, 29, 28, 27, 27, 27, 26, 25, 25, 22, 21, 20, 20];
